<number of tasks>
20


<number of equipment>
5


<cycle time>
1000


<investment costs>
1,17747
2,19518
3,21603
4,23551
5,22270


<task times>
1,206,203,-1,144,-1
2,234,196,-1,146,-1
3,241,221,-1,177,-1
4,-1,155,137,135,-1
5,-1,-1,-1,180,244
6,-1,103,152,142,-1
7,328,371,-1,421,-1
8,-1,340,298,196,-1
9,-1,267,228,369,-1
10,-1,-1,-1,187,357
11,-1,165,158,131,-1
12,-1,304,309,294,-1
13,236,104,-1,115,-1
14,218,223,-1,141,-1
15,-1,218,183,168,-1
16,-1,286,373,341,-1
17,-1,-1,-1,172,330
18,243,219,-1,165,-1
19,-1,176,170,130,-1
20,-1,263,198,225,-1


<precedence relations>
1,2
1,3
1,4
1,5
1,6
2,7
2,8
2,11
3,10
3,13
4,7
5,7
5,8
5,9
5,15
6,12
6,13
7,12
8,12
8,13
9,12
10,20
11,13
11,14
11,20
12,16
14,15
15,17
15,18
15,19
16,18
16,19
16,20


<task types>
1,2
2,2
3,2
4,3
5,1
6,3
7,2
8,3
9,3
10,1
11,3
12,3
13,2
14,2
15,3
16,3
17,1
18,2
19,3
20,3


<line depot>
1,0
2,1
3,0
4,4
5,0


<processing costs>
1,7200
2,14400
3,7200
4,21600
5,7200


<saving costs>
1,1774
2,1951
3,2160
4,2355
5,2227


<end>
